NAME: map5_180
TYPE: TSP
COMMENT: autogenerated using a wonderful map creator
DIMENSION: 210
EDGE_WEIGHT_TYPE: EUC_2D
NODE_COORD_SECTION
1 21.0 52.0
2 22.0 52.0
3 23.0 52.0
4 21.0 54.0
5 22.0 54.0
6 23.0 54.0
7 22.0 11.0
8 22.0 10.0
9 75.0 8.0
10 74.0 8.0
11 67.0 37.0
12 67.0 38.0
13 67.0 39.0
14 67.0 40.0
15 67.0 41.0
16 24.0 52.0
17 25.0 52.0
18 24.0 54.0
19 25.0 54.0
20 22.0 9.0
21 22.0 8.0
22 22.0 7.0
23 73.0 8.0
24 72.0 8.0
25 71.0 8.0
26 67.0 42.0
27 67.0 43.0
28 67.0 44.0
29 67.0 45.0
30 67.0 46.0
31 21.0 51.0
32 22.0 51.0
33 23.0 51.0
34 21.0 55.0
35 22.0 55.0
36 23.0 55.0
37 23.0 11.0
38 23.0 10.0
39 75.0 9.0
40 74.0 9.0
41 66.0 37.0
42 66.0 38.0
43 66.0 39.0
44 66.0 40.0
45 66.0 41.0
46 24.0 51.0
47 25.0 51.0
48 24.0 55.0
49 25.0 55.0
50 23.0 9.0
51 23.0 8.0
52 23.0 7.0
53 73.0 9.0
54 72.0 9.0
55 71.0 9.0
56 66.0 42.0
57 66.0 43.0
58 66.0 44.0
59 66.0 45.0
60 66.0 46.0
61 52.0 40.0
62 41.0 49.0
63 42.0 57.0
64 31.0 29.0
65 60.0 10.0
66 5.0 19.0
67 39.0 51.0
68 37.0 33.0
69 5.0 28.0
70 65.0 15.0
71 57.0 11.0
72 66.0 23.0
73 43.0 30.0
74 13.0 26.0
75 41.0 42.0
76 6.0 20.0
77 59.0 57.0
78 18.0 28.0
79 44.0 47.0
80 56.0 12.0
81 56.0 21.0
82 9.0 56.0
83 28.0 23.0
84 58.0 24.0
85 56.0 39.0
86 52.0 8.0
87 40.0 52.0
88 66.0 16.0
89 12.0 45.0
90 40.0 61.0
91 55.0 43.0
92 66.0 25.0
93 10.0 38.0
94 42.0 52.0
95 56.0 14.0
96 10.0 56.0
97 39.0 37.0
98 3.0 26.0
99 69.0 26.0
100 44.0 24.0
101 50.0 40.0
102 10.0 22.0
103 59.0 52.0
104 13.0 30.0
105 2.0 27.0
106 10.0 40.0
107 39.0 21.0
108 6.0 27.0
109 11.0 57.0
110 40.0 38.0
111 58.0 19.0
112 55.0 29.0
113 75.0 14.0
114 5.0 25.0
115 36.0 43.0
116 4.0 54.0
117 59.0 54.0
118 71.0 19.0
119 73.0 16.0
120 11.0 41.0
121 63.0 24.0
122 60.0 55.0
123 20.0 28.0
124 12.0 24.0
125 61.0 8.0
126 70.0 20.0
127 70.0 29.0
128 6.0 56.0
129 36.0 27.0
130 30.0 20.0
131 41.0 32.0
132 73.0 18.0
133 37.0 62.0
134 29.0 24.0
135 8.0 56.0
136 21.0 20.0
137 53.0 36.0
138 55.0 33.0
139 19.0 22.0
140 59.0 40.0
141 8.0 22.0
142 37.0 37.0
143 71.0 14.0
144 11.0 27.0
145 62.0 11.0
146 45.0 59.0
147 54.0 7.0
148 66.0 27.0
149 73.0 20.0
150 11.0 36.0
151 16.0 23.0
152 54.0 16.0
153 49.0 29.0
154 53.0 29.0
155 55.0 26.0
156 53.0 38.0
157 27.0 28.0
158 33.0 23.0
159 39.0 57.0
160 11.0 20.0
161 65.0 21.0
162 66.0 20.0
163 51.0 31.0
164 39.0 20.0
165 11.0 38.0
166 38.0 22.0
167 43.0 36.0
168 54.0 18.0
169 58.0 55.0
170 13.0 32.0
171 29.0 28.0
172 6.0 26.0
173 40.0 28.0
174 55.0 19.0
175 56.0 27.0
176 70.0 26.0
177 39.0 59.0
178 9.0 25.0
179 12.0 51.0
180 8.0 44.0
181 5.0 54.0
182 40.0 21.0
183 11.0 49.0
184 38.0 33.0
185 13.0 34.0
186 78.0 14.0
187 7.0 27.0
188 59.0 10.0
189 43.0 56.0
190 69.0 20.0
191 70.0 19.0
192 55.0 30.0
193 54.0 32.0
194 56.0 29.0
195 54.0 41.0
196 56.0 38.0
197 74.0 19.0
198 10.0 25.0
199 40.0 60.0
200 9.0 45.0
201 31.0 20.0
202 72.0 21.0
203 50.0 55.0
204 41.0 52.0
205 64.0 17.0
206 44.0 48.0
207 13.0 45.0
208 42.0 60.0
209 44.0 57.0
210 37.0 27.0
211 9.0 20.0
212 66.0 17.0
213 14.0 43.0
214 2.0 23.0
215 58.0 43.0
216 63.0 18.0
217 43.0 33.0
218 13.0 29.0
219 26.0 26.0
220 64.0 19.0
221 44.0 50.0
222 69.0 15.0
223 37.0 20.0
224 65.0 20.0
225 60.0 33.0
226 33.0 25.0
227 41.0 38.0
228 38.0 21.0
229 43.0 35.0
230 42.0 37.0
231 62.0 15.0
232 42.0 46.0
233 7.0 24.0
234 52.0 56.0
235 61.0 13.0
236 56.0 26.0
237 56.0 44.0
238 57.0 18.0
239 11.0 30.0
240 68.0 27.0
START_DEPOT_SECTION
1
2
3
4
5
6
7
8
9
10
11
12
13
14
15
16
17
18
19
20
21
22
23
24
25
26
27
28
29
30
-1
END_DEPOT_SECTION
31
32
33
34
35
36
37
38
39
40
41
42
43
44
45
46
47
48
49
50
51
52
53
54
55
56
57
58
59
60
-1
EOF
